42 15 22 55 24 
63 76 78 68 1 70 
72 23 67 91 
5 52 53 37 60 
59 69 30 9 20 32 77 
28 21 40 94 74 25 
95 90 10 
83 61 86 97 17 
27 12 79 3 54 80 
92 31 88 56 89 
14 98 99 85 43 13 
39 75 73 26 4 58 
33 29 81 66 93 
62 18 50 100 
45 19 8 46 48 
36 47 7 35 
65 71 96 
2 87 
44 84 
16 6 
38 
82 57 
11 34 
64 49 
41 
51 

